0	14.2	13.1	0
1	12.8	8.5		0.1
2	18.4	3.4		0.4
3	15.4	16.6	1.2
4	18.9	15.2	1.5
5	15.5	11.6	0.8
6	3.9		10.6	1.3
7	10.6	7.6		1.7
8	8.6		8.4		0.6
9	12.5	2.1		1.2
10	13.8	5.2		0.4
11	6.7		16.9	0.9
12	14.8	2.6		1.3
13	1.8		8.7		1.3
14	17.1	11		1.9
15	7.4		1		1.7
16	0.2		2.8		1.1
17	11.9	19.8	1.5
18	13.2	15.1	1.6
19	6.4		5.6		1.7
20	9.6		14.8	1.5
